#SrTiO3BaSnO3 film
units		metal
atom_style	charge
boundary p p p

neighbor 0.35 bin
neigh_modify every 20 delay 0 check no

read_data Hetero_Bulk

pair_style buck/coul/long 8.0
kspace_style ewald 1.0e-6

pair_coeff 1 1 0.00 0.01 0.00 #Sr Sr
pair_coeff 1 2 0.00 0.01 0.00 #Sr Ti
pair_coeff 1 3 682.172 0.3945 0.00 #Sr O
pair_coeff 1 4 0.00 0.01 0.00 #Sr Ba
pair_coeff 1 5 0.00 0.01 0.00 #Sr Sn
pair_coeff 2 2 0.00 0.01 0.00 #Ti Ti
pair_coeff 2 3 2179.122 0.30384 8.986 #Ti O
pair_coeff 2 4 0.00 0.01 0.00 #Ti Ba
pair_coeff 2 5 0.00 0.01 0.00 #Ti Sn
pair_coeff 3 3 9547.96 0.21916 32.00 #O O
pair_coeff 3 4 873.829 0.3863 0.00 #O Ba
pair_coeff 3 5 1056.8 0.3683 0.00 #O Sn
pair_coeff 4 4 0.00 0.01 0.00 #Ba Ba
pair_coeff 4 5 0.00 0.01 0.00 #Ba Sn
pair_coeff 5 5 0.00 0.01 0.00 #Sn Sn

timestep 0.001

fix 1 all box/relax x 0.0 y 0.0 z 0.0 vmax 0.001

minimize 1.0e-6 1.0e-6 20000 100000

thermo 20

dump d1 all atom 1 dump.Hetero_Bulk

thermo_style custom step temp pe etotal press vol fnorm fmax xlo xhi ylo yhi zlo zhi

run 1

unfix 1

min_style cg

minimize 1.0e-6 1.0e-6 20000 100000

thermo 20

dump d2 all atom 10 dump.SrTiO3-BaSnO3-at
dump d3 all xyz 10 dump.SrTiO3-BaSnO3-xyz
dump_modify d3 element Sr Ti O Ba Sn

thermo_style custom step temp pe etotal press vol fnorm fmax xlo xhi ylo yhi zlo zhi

run 1
