#SrTiO3BaSnO3 film
units		metal
atom_style	charge
boundary p p p

neighbor 0.35 bin
neigh_modify every 20 delay 0 check no

read_data Hetero-Bulk-La

pair_style buck/coul/long 8.0
kspace_style ewald 1.0e-6

pair_coeff 1 1 0.00 0.01 0.00 #Sr Sr
pair_coeff 1 2 0.00 0.01 0.00 #Sr Ti
pair_coeff 1 3 682.172 0.3945 0.00 #Sr O
pair_coeff 1 4 0.00 0.01 0.00 #Sr Ba
pair_coeff 1 5 0.00 0.01 0.00 #Sr Sn
pair_coeff 1 6 0.00 0.01 0.00 #Sr La
pair_coeff 2 2 0.00 0.01 0.00 #Ti Ti
pair_coeff 2 3 2179.122 0.30384 8.986 #Ti O
pair_coeff 2 4 0.00 0.01 0.00 #Ti Ba
pair_coeff 2 5 0.00 0.01 0.00 #Ti Sn
pair_coeff 2 6 0.00 0.01 0.00 #Ti La
pair_coeff 3 3 9547.96 0.21916 32.00 #O O
pair_coeff 3 4 873.829 0.3863 0.00 #O Ba
pair_coeff 3 5 1056.8 0.3683 0.00 #O Sn
pair_coeff 3 6 1968.92 0.34600 23.25 #O La
pair_coeff 4 4 0.00 0.01 0.00 #Ba Ba
pair_coeff 4 5 0.00 0.01 0.00 #Ba Sn
pair_coeff 4 6 0.00 0.01 0.00 #Ba La
pair_coeff 5 5 0.00 0.01 0.00 #Sn Sn
pair_coeff 5 6 0.00 0.01 0.00 #Sn La
pair_coeff 6 6 0.00 0.01 0.00 #La La


timestep 0.001


min_style cg

minimize 1.0e-6 1.0e-6 20000 100000

thermo 20

dump d2 all atom 1 dump.SrTiO3-BaSnO3-at
dump d3 all xyz 1 dump.SrTiO3-BaSnO3-xyz
dump_modify d3 element Sr Ti O Ba Sn La

thermo_style custom step temp pe etotal press vol fnorm fmax xlo xhi ylo yhi zlo zhi

run 1
